************************************************************************
file with basedata            : md79_.bas
initial value random generator: 770218318
************************************************************************
projects                      :  1
jobs (incl. supersource/sink ):  14
horizon                       :  101
RESOURCES
  - renewable                 :  2   R
  - nonrenewable              :  2   N
  - doubly constrained        :  0   D
************************************************************************
PROJECT INFORMATION:
pronr.  #jobs rel.date duedate tardcost  MPM-Time
    1     12      0       12        3       12
************************************************************************
PRECEDENCE RELATIONS:
jobnr.    #modes  #successors   successors
   1        1          3           2   3   4
   2        3          3           6   8   9
   3        3          3           5   6   9
   4        3          3           8  12  13
   5        3          3           7   8  10
   6        3          3           7  10  11
   7        3          2          12  13
   8        3          1          11
   9        3          1          11
  10        3          1          13
  11        3          1          14
  12        3          1          14
  13        3          1          14
  14        1          0        
************************************************************************
REQUESTS/DURATIONS:
jobnr. mode duration  R 1  R 2  N 1  N 2
------------------------------------------------------------------------
  1      1     0       0    0    0    0
  2      1     2       7    4    5    0
         2     2       9    3    0    7
         3     4       5    3    0    7
  3      1     2       9    5    0    5
         2     5       6    5    8    0
         3     9       5    4    0    5
  4      1     1       6    7    0    9
         2     8       4    5    0    9
         3    10       2    4    0    7
  5      1     1       4    5    0    4
         2     4       3    4    0    1
         3     8       3    4    1    0
  6      1     2       4    3    7    0
         2     8       2    2    0    4
         3    10       2    2    0    3
  7      1     3       6    4   10    0
         2     3       7    6    0    7
         3    10       3    3    8    0
  8      1     2       2    8    0    6
         2     4       2    8    2    0
         3    10       1    7    1    0
  9      1     3      10    9    6    0
         2     6       5    8    0    5
         3     7       3    5    0    5
 10      1     5       5    9    9    0
         2     8       4    8    0    7
         3    10       4    8    0    5
 11      1     1       5    5    6    0
         2     6       5    3    6    0
         3     8       2    2    0    4
 12      1     5       3    6    7    0
         2     9       3    3    7    0
         3    10       2    3    0    9
 13      1     2       6    8   10    0
         2     4       4    7    9    0
         3     5       2    3    7    0
 14      1     0       0    0    0    0
************************************************************************
RESOURCEAVAILABILITIES:
  R 1  R 2  N 1  N 2
   19   26   39   37
************************************************************************
